WARNING: for repeatability, setting FPU to use double precision
============================[ Problem Statistics ]=============================
|                                                                             |
|  Number of variables:         33791                                         |
|  Number of clauses:          839533                                         |
|  Parse time:                   0.24 s                                       |
|  Eliminated clauses:           0.01 Mb                                      |
|  Simplification time:          0.31 s                                       |
|                                                                             |
============================[ Search Statistics ]==============================
| Conflicts |          ORIGINAL         |          LEARNT          | Progress |
|           |    Vars  Clauses Literals |    Limit  Clauses Lit/Cl |          |
===============================================================================
===============================================================================
restarts              : 1
conflicts             : 49             (87 /sec)
decisions             : 898            (0.00 % random) (1602 /sec)
propagations          : 40213          (71752 /sec)
conflict literals     : 6738           (0.25 % deleted)
Memory used           : 77.00 MB
CPU time              : 0.560445 s

SATISFIABLE
